21
13
14 10 9 1 0 16 7 17 12 6 2 8
12 20 0 10 1 14 15 5 3 2 7 6
0 9 20 17 13 12 10 14 19 1 16 5 18 15 2
7 5 2 12 1 8 19 15 13 11 14 17 4 6 16 3 18
9 0 6 10 19 18 14 8
13 19 3 4 1 15 12 10 16 17 2 11 9 18 7 5 6 0 8
8 12 7 11 0 13 19 16 4 9 6 10 1 3 17 20 14 15
9 19 3 16 12 18 2 13 20
4 16 2 13 17 12 14 8 0 10 15 3 11 19 20 5 6
14 12 7 2 11 18 19 13 16
12 11 20
6 7 15 14 20 2 16 11 13 4 17 10
9 16 3 18 1 6 12 7 13 11 2 8 0
